1

35 40
32 34
33 32
35 32
9 33
32 8
12 16
18 14
13 7
30 33
4 30
2 13
27 26
4 29
6 5
10 6
9 6
32 7
3 1
21 3
12 3
2 1
24 12
12 23
22 12
16 14
19 14
14 15
7 6
6 8
13 14
1 4
27 4
5 4
11 30
31 30
32 30
13 25
25 26
6 11
14 17